NAME : exp-10-5
COMMENT : Example
TYPE : TSP
DIMENSION : 11
VEHICLES : 5
SCALE : 100000
DISTANCE : 29411.50000
EDGE_WEIGHT_TYPE : EXPLICIT
EDGE_WEIGHT_FORMAT : UPPER_ROW
EDGE_WEIGHT_SECTION
2997.174342
2440.660448
2106.483627
3139.259669
1259.892709
1838.325307
739.762683
1149.781594
1594.974824
1623.418065

2337.834791
5003.657970
3242.085327
2837.281633
3258.849035
3357.411659
4046.955936
4492.149166
1520.592407

2765.823179
5479.920117
3600.553157
1021.014244
3080.423131
2709.557958
2264.364728
2964.078514

4145.743296
2266.376336
2044.808934
1746.246310
1056.702034
611.508803
3629.901692

1979.366960
4877.584976
2499.496986
3189.041262
3634.234493
2615.841604

2998.218016
720.130026
1309.674302
1854.867533
1463.525356

2478.087990
1788.543713
1343.350483
2361.743372

889.544277
1234.737507
1983.655382

645.193230
2673.199659

3118.392889

DEPOT_SECTION
1
-1

EOF
